unsat
((set-logic NIA)
(proof
(let (($x116 (exists ((q Int) (r Int) (y Int) )(! (let ((?x36 (* q00 y00)))
 (let ((?x87 (* (- 1) ?x36)))
 (let ((?x63 (* (- 1) r00)))
 (let ((?x65 (* (- 1) y00)))
 (let (($x130 (not (= (+ r ?x65 ?x63 ?x87 (* y00 (+ 1 q))) 0))))
 (let (($x179 (= (+ r ?x63 ?x87 (* y00 q)) 0)))
 (let ((?x166 (* (- 1) y)))
 (let ((?x167 (+ y00 ?x166)))
 (let (($x180 (= ?x167 0)))
 (and $x180 $x179 $x130)))))))))) :qid k!31))
 ))
 (let (($x155 (exists ((q Int) (r Int) (y Int) )(! false :qid k!31))
 ))
 (let ((@x163 (elim-unused (= $x155 false))))
 (let ((?x204 (lambda ((q Int) (r Int) (y Int) )(let ((?x36 (* q00 y00)))
 (let ((?x87 (* (- 1) ?x36)))
 (let ((?x63 (* (- 1) r00)))
 (let ((?x65 (* (- 1) y00)))
 (let (($x130 (not (= (+ r ?x65 ?x63 ?x87 (* y00 (+ 1 q))) 0))))
 (let (($x179 (= (+ r ?x63 ?x87 (* y00 q)) 0)))
 (let ((?x166 (* (- 1) y)))
 (let ((?x167 (+ y00 ?x166)))
 (let (($x180 (= ?x167 0)))
 (let (($x207 (and $x180 $x179 $x130)))
 (let (($x99 (= (+ r ?x63 (* q y00) (* (- 1) (* y00 q00))) 0)))
 (let (($x107 (not $x99)))
 (let (($x74 (= (+ y ?x65) 0)))
 (let (($x145 (and $x74 $x99 $x107)))
 (let ((@x152 (rewrite (= $x145 false))))
 (let ((@x150 (monotonicity (rewrite (= ?x167 (+ ?x166 y00))) (= $x180 (= (+ ?x166 y00) 0)))))
 (let ((@x187 (trans @x150 (rewrite (= (= (+ ?x166 y00) 0) $x74)) (= $x180 $x74))))
 (let ((@x217 (monotonicity @x187 (rewrite (= $x179 $x99)) (rewrite (= $x130 $x107)) (= $x207 $x145))))
 (trans @x217 @x152 (= $x207 false)))))))))))))))))))))
 ))
 (let ((@x213 (trans (quant-intro (proof-bind ?x204) (= $x116 $x155)) @x163 (= $x116 false))))
 (let (($x175 (exists ((q Int) (r Int) (y Int) )(! (let ((?x36 (* q00 y00)))
 (let ((?x87 (* (- 1) ?x36)))
 (let ((?x63 (* (- 1) r00)))
 (let ((?x65 (* (- 1) y00)))
 (let (($x130 (not (= (+ r ?x65 ?x63 ?x87 (* y00 (+ 1 q))) 0))))
 (let (($x179 (= (+ r ?x63 ?x87 (* y00 q)) 0)))
 (and (= (+ ?x65 y) 0) $x179 $x130))))))) :qid k!31))
 ))
 (let ((?x182 (lambda ((q Int) (r Int) (y Int) )(let ((?x36 (* q00 y00)))
 (let ((?x87 (* (- 1) ?x36)))
 (let ((?x63 (* (- 1) r00)))
 (let ((?x65 (* (- 1) y00)))
 (let (($x130 (not (= (+ r ?x65 ?x63 ?x87 (* y00 (+ 1 q))) 0))))
 (let (($x179 (= (+ r ?x63 ?x87 (* y00 q)) 0)))
 (let ((?x166 (* (- 1) y)))
 (let ((?x167 (+ y00 ?x166)))
 (let (($x180 (= ?x167 0)))
 (let (($x207 (and $x180 $x179 $x130)))
 (let (($x172 (and (= (+ ?x65 y) 0) $x179 $x130)))
 (rewrite (= $x172 $x207))))))))))))))
 ))
 (let (($x60 (exists ((q Int) (r Int) (y Int) )(! (let ((?x30 (* (- 1) y00)))
 (let ((?x42 (+ ?x30 y00)))
 (let ((?x45 (- r y00)))
 (let ((?x48 (+ q 1)))
 (let ((?x54 (- 8)))
 (let ((?x55 (* ?x54 ?x48 ?x45 ?x45 y00 ?x42)))
 (let (($x56 (= ?x55 0)))
 (let (($x57 (not $x56)))
 (let (($x52 (not (= (+ (- (- ?x45 r00) (* q00 y00)) (* ?x48 y00)) 0))))
 (let (($x43 (= ?x42 0)))
 (let (($x44 (not $x43)))
 (let (($x58 (or $x44 $x52 $x57)))
 (let (($x41 (= (+ (- (- r r00) (* q00 y00)) (* q y00)) 0)))
 (let (($x33 (= (+ ?x30 y) 0)))
 (and $x33 $x41 $x58))))))))))))))) :qid k!31))
 ))
 (let ((?x178 (lambda ((q Int) (r Int) (y Int) )(let ((?x36 (* q00 y00)))
 (let ((?x87 (* (- 1) ?x36)))
 (let ((?x63 (* (- 1) r00)))
 (let ((?x65 (* (- 1) y00)))
 (let (($x130 (not (= (+ r ?x65 ?x63 ?x87 (* y00 (+ 1 q))) 0))))
 (let (($x179 (= (+ r ?x63 ?x87 (* y00 q)) 0)))
 (let (($x172 (and (= (+ ?x65 y) 0) $x179 $x130)))
 (let ((?x30 (* (- 1) y00)))
 (let ((?x42 (+ ?x30 y00)))
 (let ((?x45 (- r y00)))
 (let ((?x48 (+ q 1)))
 (let ((?x54 (- 8)))
 (let ((?x55 (* ?x54 ?x48 ?x45 ?x45 y00 ?x42)))
 (let (($x56 (= ?x55 0)))
 (let (($x57 (not $x56)))
 (let (($x52 (not (= (+ (- (- ?x45 r00) ?x36) (* ?x48 y00)) 0))))
 (let (($x43 (= ?x42 0)))
 (let (($x44 (not $x43)))
 (let (($x58 (or $x44 $x52 $x57)))
 (let (($x41 (= (+ (- (- r r00) ?x36) (* q y00)) 0)))
 (let (($x33 (= (+ ?x30 y) 0)))
 (let (($x59 (and $x33 $x41 $x58)))
 (rewrite (= $x59 $x172)))))))))))))))))))))))))
 ))
 (let ((@x61 (asserted $x60)))
 (let ((@x140 (mp (mp @x61 (quant-intro (proof-bind ?x178) (= $x60 $x175)) $x175) (rewrite (= $x175 $x175)) $x175)))
 (mp (mp @x140 (quant-intro (proof-bind ?x182) (= $x175 $x116)) $x116) @x213 false))))))))))))))

(:max-memory   3.33
 :memory       3.02
 :mk-bool-var  6
 :num-allocs   957773
 :num-checks   1
 :rlimit-count 365
 :time         0.01
 :total-time   0.01)
